0000000000000000
0000000000000000
0011111111000000
0011111111100000
0000000000110000
0000000000111000
0000000000011000
0000000000011000
0000000000011000
0000000000011000
0000000000011000
0000000000110000
0011111111110000
0011111111100000
0000000000000000
0000000000000000
